Solving original (integer) problem with strategy gdp.hull...
--- Job model.gms Start 02/16/26 18:15:47 52.2.0 d8e408be LEX-LEG x86 64bit/Linux
--- Applying:
    /package/gams/52.2/gmsprmun.txt
--- GAMS Parameters defined
    Input /local/scratch/a/sgusev/repos/k_means/data/gams_scip_gdp.hull/no_mode/2026-02-16_18-15-46/original/model.gms
    Output /local/scratch/a/sgusev/repos/k_means/data/gams_scip_gdp.hull/no_mode/2026-02-16_18-15-46/original/output.lst
    ScrDir /local/scratch/a/sgusev/repos/k_means/data/gams_scip_gdp.hull/no_mode/2026-02-16_18-15-46/original/225a/
    SysDir /package/gams/52.2/
    CurDir /local/scratch/a/sgusev/repos/k_means/data/gams_scip_gdp.hull/no_mode/2026-02-16_18-15-46/original/
    LogOption 3
    AppendLog 1
Licensee: David Bernal / SECQUOIA Research Group         G251008+0003Ac-GEN
          Purdue University, Davidson School of Chemical EngineeringDCE4838
          225a/gamslice.dat
          5a82958a-fbca-4a23
          node:66820903 mem:995 cores:48 ipport:34159 v:2                  
          Evaluation license: Not for commercial or production use
          The time-limited license stops working on : Jun 30, 2027
System information: 48 physical cores and 995 Gb physical memory detected
GAMS 52.2.0   Copyright (C) 1987-2025 GAMS Development. All rights reserved
--- Starting compilation
--- model.gms(6236) 2 Mb
--- $echo File /local/scratch/a/sgusev/repos/k_means/data/gams_scip_gdp.hull/no_mode/2026-02-16_18-15-46/original/scip.opt
--- model.gms(9100) 3 Mb
--- Starting execution: elapsed 0:00:00.030
--- model.gms(6246) 4 Mb
--- Generating MINLP model GAMS_MODEL
--- model.gms(6250) 6 Mb
---   1,909 rows  888 columns  4,633 non-zeroes
---   4,165 nl-code  510 nl-non-zeroes
---   85 discrete-columns
--- Range statistics (absolute non-zero finite values)
--- RHS       [min, max] : [ 2.296E-05, 1.000E+00] - Zero values observed as well
--- Bound     [min, max] : [ 1.000E+00, 1.360E+02] - Zero values observed as well
--- Matrix    [min, max] : [ 1.154E-02, 1.360E+02]
--- model.gms(6250) 4 Mb
--- Executing SCIP (Solvelink=5): elapsed 0:00:00.039

SCIP             52.2.0 d8e408be Dec 8, 2025           LEG x86 64bit/Linux    
SCIP version 9.2.4 (a94f778ac8)
Copyright (c) 2002-2025 Zuse Institute Berlin (ZIB)

External libraries: 
  CPLEX 22.1.2.0       Linear Programming Solver developed by IBM (www.cplex.com)
  CppAD 20180000.0     Algorithmic Differentiation of C++ algorithms developed by B. Bell (github.com/coin-or/CppAD)
  PaPILO 2.4.4         parallel presolve for integer and linear optimization (github.com/scipopt/papilo) (built with TBB) [GitHash: 7c826d50]
  Nauty 2.8.9          Computing Graph Automorphism Groups by Brendan D. McKay (users.cecs.anu.edu.au/~bdm/nauty)
  sassy 1.1            Symmetry preprocessor by Markus Anders (github.com/markusa4/sassy)
  Ipopt 3.14.19        Interior Point Optimizer developed by A. Waechter et.al. (github.com/coin-or/Ipopt)

reading option file /local/scratch/a/sgusev/repos/k_means/data/gams_scip_gdp.hull/no_mode/2026-02-16_18-15-46/original/scip.opt
non-default parameter settings:
limits/time = 300
limits/gap = 1e-06
limits/absgap = 1e-10
lp/threads = 1
misc/printreason = FALSE
numerics/dualfeastol = 1e-06
parallel/maxnthreads = 1
nlpi/ipopt/linear_solver = "ma27"
nlpi/ipopt/linear_system_scaling = "mc19"

original problem has 887 variables (85 bin, 0 int, 802 cont) and 1908 constraints

all 1 solutions given by solution candidate storage are infeasible

presolving:
(round 1, fast)       17 del vars, 0 del conss, 0 add conss, 0 chg bounds, 0 chg sides, 0 chg coeffs, 0 upgd conss, 0 impls, 17 clqs
(round 2, fast)       17 del vars, 0 del conss, 0 add conss, 0 chg bounds, 17 chg sides, 0 chg coeffs, 0 upgd conss, 0 impls, 17 clqs
(round 3, exhaustive) 17 del vars, 0 del conss, 0 add conss, 0 chg bounds, 17 chg sides, 0 chg coeffs, 1462 upgd conss, 0 impls, 17 clqs
   (0.1s) probing cycle finished: starting next cycle
   (0.1s) symmetry computation started: requiring (bin +, int +, cont +), (fixed: bin -, int -, cont -)
   (0.2s) no symmetry present (symcode time: 0.00)
presolving (4 rounds: 4 fast, 2 medium, 2 exhaustive):
 17 deleted vars, 0 deleted constraints, 0 added constraints, 0 tightened bounds, 0 added holes, 17 changed sides, 0 changed coefficients
 4505 implications, 17 cliques
presolved problem has 870 variables (85 bin, 0 int, 0 impl, 785 cont) and 1908 constraints
   1445 constraints of type <varbound>
     17 constraints of type <setppc>
    361 constraints of type <linear>
     85 constraints of type <nonlinear>
Presolving Time: 0.14

 time | node  | left  |LP iter|LP it/n|mem/heur|mdpt |vars |cons |rows |cuts |sepa|confs|strbr|  dualbound   | primalbound  |  gap   | compl. 
  0.3s|     1 |     0 |  1334 |     - |    32M |   0 |3080 |1908 |4879 |   0 |  0 |   0 |   0 | 0.000000e+00 |      --      |    Inf | unknown
p 0.4s|     1 |     0 |  1434 |     - |  clique|   0 |3080 |1908 |4879 |   0 |  0 |   0 |   0 | 0.000000e+00 | 2.163920e+01 |    Inf | unknown
  0.4s|     1 |     0 |  1725 |     - |    33M |   0 |3080 |1908 |4970 |  91 |  1 |   0 |   0 | 0.000000e+00 | 2.163920e+01 |    Inf | unknown
  0.4s|     1 |     0 |  1725 |     - |    33M |   0 |3080 |1908 |4953 |  91 |  1 |   0 |   0 | 0.000000e+00 | 2.163920e+01 |    Inf | unknown
  0.5s|     1 |     0 |  2052 |     - |    34M |   0 |3080 |1908 |5082 | 220 |  2 |   0 |   0 | 0.000000e+00 | 2.163920e+01 |    Inf | unknown
  0.5s|     1 |     0 |  2426 |     - |    35M |   0 |3080 |1908 |5187 | 325 |  3 |   0 |   0 | 0.000000e+00 | 2.163920e+01 |    Inf | unknown
  0.6s|     1 |     0 |  2655 |     - |    36M |   0 |3080 |1908 |5283 | 421 |  4 |   0 |   0 | 0.000000e+00 | 2.163920e+01 |    Inf | unknown
  0.6s|     1 |     0 |  2840 |     - |    38M |   0 |3080 |1908 |5380 | 518 |  5 |   0 |   0 | 0.000000e+00 | 2.163920e+01 |    Inf | unknown
  0.7s|     1 |     0 |  3016 |     - |    38M |   0 |3080 |1908 |5462 | 600 |  6 |   0 |   0 | 0.000000e+00 | 2.163920e+01 |    Inf | unknown
  0.7s|     1 |     0 |  3208 |     - |    39M |   0 |3080 |1908 |5541 | 679 |  7 |   0 |   0 | 0.000000e+00 | 2.163920e+01 |    Inf | unknown
  0.8s|     1 |     0 |  3380 |     - |    40M |   0 |3080 |1908 |5618 | 756 |  8 |   0 |   0 | 0.000000e+00 | 2.163920e+01 |    Inf | unknown
  0.8s|     1 |     0 |  3624 |     - |    40M |   0 |3080 |1908 |5689 | 827 |  9 |   0 |   0 | 0.000000e+00 | 2.163920e+01 |    Inf | unknown
  0.9s|     1 |     0 |  3749 |     - |    41M |   0 |3080 |1908 |5756 | 894 | 10 |   0 |   0 | 0.000000e+00 | 2.163920e+01 |    Inf | unknown
  0.9s|     1 |     0 |  3867 |     - |    42M |   0 |3080 |1908 |5837 | 975 | 11 |   0 |   0 | 0.000000e+00 | 2.163920e+01 |    Inf | unknown
  1.0s|     1 |     0 |  3979 |     - |    42M |   0 |3080 |1908 |5898 |1036 | 12 |   0 |   0 | 0.000000e+00 | 2.163920e+01 |    Inf | unknown
 time | node  | left  |LP iter|LP it/n|mem/heur|mdpt |vars |cons |rows |cuts |sepa|confs|strbr|  dualbound   | primalbound  |  gap   | compl. 
  8.1s|     1 |     0 | 82411 |     - |    43M |   0 |3080 |1891 |5898 |1036 | 12 |   0 |   0 | 0.000000e+00 | 2.163920e+01 |    Inf | unknown
  8.1s|     1 |     0 | 82623 |     - |    43M |   0 |3080 |1891 |5954 |1092 | 13 |   0 |   0 | 0.000000e+00 | 2.163920e+01 |    Inf | unknown
  8.2s|     1 |     0 | 82800 |     - |    44M |   0 |3080 |1891 |3403 |1159 | 14 |   0 |   0 | 0.000000e+00 | 2.163920e+01 |    Inf | unknown
  8.2s|     1 |     0 | 82876 |     - |    45M |   0 |3080 |1891 |3465 |1221 | 15 |   0 |   0 | 0.000000e+00 | 2.163920e+01 |    Inf | unknown
  8.2s|     1 |     0 | 82934 |     - |    45M |   0 |3080 |1891 |3527 |1283 | 16 |   0 |   0 | 0.000000e+00 | 2.163920e+01 |    Inf | unknown
  8.2s|     1 |     0 | 82983 |     - |    45M |   0 |3080 |1891 |3575 |1331 | 17 |   0 |   0 | 0.000000e+00 | 2.163920e+01 |    Inf | unknown
  8.3s|     1 |     0 | 83025 |     - |    46M |   0 |3080 |1891 |3621 |1377 | 18 |   0 |   0 | 0.000000e+00 | 2.163920e+01 |    Inf | unknown
  8.3s|     1 |     0 | 83050 |     - |    46M |   0 |3080 |1891 |3663 |1419 | 19 |   0 |   0 | 0.000000e+00 | 2.163920e+01 |    Inf | unknown
  8.3s|     1 |     0 | 83081 |     - |    46M |   0 |3080 |1891 |3313 |1452 | 20 |   0 |   0 | 0.000000e+00 | 2.163920e+01 |    Inf | unknown
  8.3s|     1 |     0 | 83099 |     - |    46M |   0 |3080 |1891 |3335 |1474 | 21 |   0 |   0 | 0.000000e+00 | 2.163920e+01 |    Inf | unknown
  8.3s|     1 |     0 | 83115 |     - |    47M |   0 |3080 |1891 |3353 |1492 | 22 |   0 |   0 | 0.000000e+00 | 2.163920e+01 |    Inf | unknown
  8.4s|     1 |     0 | 83124 |     - |    47M |   0 |3080 |1891 |3362 |1501 | 23 |   0 |   0 | 0.000000e+00 | 2.163920e+01 |    Inf | unknown
L10.8s|     1 |     0 | 87826 |     - |    rens|   0 |3080 |1891 |3362 |1501 | 23 |   0 |   0 | 0.000000e+00 | 1.262210e+01 |    Inf | unknown
 11.0s|     1 |     0 | 87826 |     - |    51M |   0 |3080 |1891 |3362 |1501 | 23 |   0 |   0 | 0.000000e+00 | 1.262210e+01 |    Inf | unknown
 11.0s|     1 |     0 | 87828 |     - |    51M |   0 |3080 |1891 |3364 |1503 | 24 |   0 |   0 | 0.000000e+00 | 1.262210e+01 |    Inf | unknown
 time | node  | left  |LP iter|LP it/n|mem/heur|mdpt |vars |cons |rows |cuts |sepa|confs|strbr|  dualbound   | primalbound  |  gap   | compl. 
 11.0s|     1 |     0 | 87854 |     - |    51M |   0 |3080 |1891 |3364 |1503 | 25 |   0 |   1 | 0.000000e+00 | 1.262210e+01 |    Inf | unknown
 11.0s|     1 |     0 | 87902 |     - |    51M |   0 |3080 |1891 |3378 |1517 | 26 |   0 |   1 | 0.000000e+00 | 1.262210e+01 |    Inf | unknown
 11.0s|     1 |     0 | 87911 |     - |    51M |   0 |3080 |1891 |3379 |1518 | 27 |   0 |   1 | 0.000000e+00 | 1.262210e+01 |    Inf | unknown
 11.1s|     1 |     0 | 87914 |     - |    51M |   0 |3080 |1891 |3037 |1518 | 27 |   0 |   2 | 0.000000e+00 | 1.262210e+01 |    Inf | unknown
 11.1s|     1 |     0 | 87926 |     - |    51M |   0 |3080 |1891 |3056 |1537 | 28 |   0 |   2 | 0.000000e+00 | 1.262210e+01 |    Inf | unknown
 11.1s|     1 |     0 | 87930 |     - |    51M |   0 |3080 |1891 |3056 |1537 | 29 |   0 |   3 | 0.000000e+00 | 1.262210e+01 |    Inf | unknown
 11.1s|     1 |     0 | 87954 |     - |    51M |   0 |3080 |1891 |3075 |1556 | 30 |   0 |   3 | 0.000000e+00 | 1.262210e+01 |    Inf | unknown
 11.1s|     1 |     0 | 87957 |     - |    51M |   0 |3080 |1891 |3076 |1557 | 31 |   0 |   3 | 0.000000e+00 | 1.262210e+01 |    Inf | unknown
 11.1s|     1 |     0 | 87962 |     - |    51M |   0 |3080 |1891 |3076 |1557 | 31 |   0 |   4 | 0.000000e+00 | 1.262210e+01 |    Inf | unknown
 11.1s|     1 |     0 | 87975 |     - |    51M |   0 |3080 |1891 |2983 |1580 | 32 |   0 |   4 | 0.000000e+00 | 1.262210e+01 |    Inf | unknown
 11.2s|     1 |     0 | 87976 |     - |    51M |   0 |3080 |1891 |2984 |1581 | 33 |   0 |   4 | 0.000000e+00 | 1.262210e+01 |    Inf | unknown
 11.2s|     1 |     0 | 87982 |     - |    51M |   0 |3080 |1891 |2984 |1581 | 33 |   0 |   5 | 0.000000e+00 | 1.262210e+01 |    Inf | unknown
 11.2s|     1 |     0 | 88015 |     - |    51M |   0 |3080 |1891 |3006 |1603 | 34 |   0 |   5 | 0.000000e+00 | 1.262210e+01 |    Inf | unknown
 11.2s|     1 |     0 | 88031 |     - |    51M |   0 |3080 |1891 |3011 |1608 | 35 |   0 |   5 | 0.000000e+00 | 1.262210e+01 |    Inf | unknown
 11.2s|     1 |     0 | 88041 |     - |    51M |   0 |3080 |1891 |3011 |1608 | 35 |   0 |   6 | 0.000000e+00 | 1.262210e+01 |    Inf | unknown
 time | node  | left  |LP iter|LP it/n|mem/heur|mdpt |vars |cons |rows |cuts |sepa|confs|strbr|  dualbound   | primalbound  |  gap   | compl. 
 11.2s|     1 |     0 | 88084 |     - |    51M |   0 |3080 |1891 |2981 |1641 | 36 |   0 |   6 | 0.000000e+00 | 1.262210e+01 |    Inf | unknown
 11.2s|     1 |     0 | 88110 |     - |    51M |   0 |3080 |1891 |2984 |1644 | 37 |   0 |   6 | 0.000000e+00 | 1.262210e+01 |    Inf | unknown
 11.2s|     1 |     0 | 88111 |     - |    51M |   0 |3080 |1891 |2984 |1644 | 37 |   0 |   7 | 0.000000e+00 | 1.262210e+01 |    Inf | unknown
 11.3s|     1 |     0 | 88145 |     - |    51M |   0 |3080 |1891 |3019 |1679 | 38 |   0 |   7 | 0.000000e+00 | 1.262210e+01 |    Inf | unknown
 11.3s|     1 |     0 | 88147 |     - |    51M |   0 |3080 |1891 |3022 |1682 | 39 |   0 |   7 | 0.000000e+00 | 1.262210e+01 |    Inf | unknown
 11.3s|     1 |     0 | 88147 |     - |    51M |   0 |3080 |1891 |3022 |1682 | 39 |   0 |   8 | 0.000000e+00 | 1.262210e+01 |    Inf | unknown
 11.3s|     1 |     0 | 88200 |     - |    51M |   0 |3080 |1891 |3075 |1735 | 40 |   0 |   8 | 0.000000e+00 | 1.262210e+01 |    Inf | unknown
 11.3s|     1 |     0 | 88208 |     - |    51M |   0 |3080 |1891 |3020 |1742 | 41 |   0 |   8 | 0.000000e+00 | 1.262210e+01 |    Inf | unknown
 11.3s|     1 |     0 | 88210 |     - |    51M |   0 |3080 |1891 |3020 |1742 | 41 |   0 |   9 | 0.000000e+00 | 1.262210e+01 |    Inf | unknown
 11.3s|     1 |     0 | 88246 |     - |    51M |   0 |3080 |1891 |3055 |1777 | 42 |   0 |   9 | 0.000000e+00 | 1.262210e+01 |    Inf | unknown
 11.3s|     1 |     0 | 88247 |     - |    51M |   0 |3080 |1891 |3056 |1778 | 43 |   0 |   9 | 0.000000e+00 | 1.262210e+01 |    Inf | unknown
 11.3s|     1 |     0 | 88249 |     - |    51M |   0 |3080 |1891 |3056 |1778 | 43 |   0 |  10 | 0.000000e+00 | 1.262210e+01 |    Inf | unknown
 11.4s|     1 |     0 | 88337 |     - |    51M |   0 |3080 |1891 |3105 |1827 | 44 |   0 |  10 | 0.000000e+00 | 1.262210e+01 |    Inf | unknown
 11.4s|     1 |     0 | 88366 |     - |    51M |   0 |3080 |1891 |3046 |1839 | 45 |   0 |  10 | 0.000000e+00 | 1.262210e+01 |    Inf | unknown
 11.4s|     1 |     0 | 88370 |     - |    51M |   0 |3080 |1891 |3046 |1839 | 45 |   0 |  11 | 0.000000e+00 | 1.262210e+01 |    Inf | unknown
 time | node  | left  |LP iter|LP it/n|mem/heur|mdpt |vars |cons |rows |cuts |sepa|confs|strbr|  dualbound   | primalbound  |  gap   | compl. 
 11.4s|     1 |     0 | 88448 |     - |    51M |   0 |3080 |1891 |3099 |1892 | 46 |   0 |  11 | 0.000000e+00 | 1.262210e+01 |    Inf | unknown
 11.4s|     1 |     0 | 88463 |     - |    51M |   0 |3080 |1891 |3108 |1901 | 47 |   0 |  11 | 0.000000e+00 | 1.262210e+01 |    Inf | unknown
 11.4s|     1 |     0 | 88497 |     - |    51M |   0 |3080 |1891 |3108 |1901 | 47 |   0 |  12 | 0.000000e+00 | 1.262210e+01 |    Inf | unknown
 11.4s|     1 |     0 | 88532 |     - |    51M |   0 |3080 |1891 |3134 |1927 | 48 |   0 |  12 | 0.000000e+00 | 1.262210e+01 |    Inf | unknown
 11.5s|     1 |     0 | 88537 |     - |    51M |   0 |3080 |1891 |3011 |1931 | 49 |   0 |  12 | 0.000000e+00 | 1.262210e+01 |    Inf | unknown
 11.5s|     1 |     0 | 88540 |     - |    51M |   0 |3080 |1891 |3011 |1931 | 49 |   0 |  13 | 0.000000e+00 | 1.262210e+01 |    Inf | unknown
 11.5s|     1 |     0 | 88593 |     - |    51M |   0 |3080 |1891 |3035 |1955 | 50 |   0 |  13 | 0.000000e+00 | 1.262210e+01 |    Inf | unknown
 11.5s|     1 |     0 | 88609 |     - |    51M |   0 |3080 |1891 |3041 |1961 | 51 |   0 |  13 | 0.000000e+00 | 1.262210e+01 |    Inf | unknown
 11.5s|     1 |     0 | 88614 |     - |    51M |   0 |3080 |1891 |3041 |1961 | 51 |   0 |  14 | 0.000000e+00 | 1.262210e+01 |    Inf | unknown
 11.5s|     1 |     0 | 88690 |     - |    51M |   0 |3080 |1891 |3067 |1987 | 52 |   0 |  14 | 0.000000e+00 | 1.262210e+01 |    Inf | unknown
 11.5s|     1 |     0 | 88712 |     - |    51M |   0 |3080 |1891 |2956 |1998 | 53 |   0 |  14 | 0.000000e+00 | 1.262210e+01 |    Inf | unknown
 11.5s|     1 |     0 | 88720 |     - |    51M |   0 |3080 |1891 |2956 |1998 | 53 |   0 |  15 | 0.000000e+00 | 1.262210e+01 |    Inf | unknown
 11.6s|     1 |     0 | 88778 |     - |    51M |   0 |3080 |1891 |2984 |2026 | 54 |   0 |  15 | 0.000000e+00 | 1.262210e+01 |    Inf | unknown
 11.6s|     1 |     0 | 88794 |     - |    51M |   0 |3080 |1891 |2992 |2034 | 55 |   0 |  15 | 0.000000e+00 | 1.262210e+01 |    Inf | unknown
 11.6s|     1 |     0 | 88802 |     - |    52M |   0 |3080 |1891 |2992 |2034 | 55 |   0 |  16 | 0.000000e+00 | 1.262210e+01 |    Inf | unknown
 time | node  | left  |LP iter|LP it/n|mem/heur|mdpt |vars |cons |rows |cuts |sepa|confs|strbr|  dualbound   | primalbound  |  gap   | compl. 
 11.6s|     1 |     0 | 88880 |     - |    52M |   0 |3080 |1891 |3017 |2059 | 56 |   0 |  16 | 0.000000e+00 | 1.262210e+01 |    Inf | unknown
 11.6s|     1 |     0 | 88913 |     - |    52M |   0 |3080 |1891 |2975 |2071 | 57 |   0 |  16 | 0.000000e+00 | 1.262210e+01 |    Inf | unknown
 11.6s|     1 |     0 | 88913 |     - |    52M |   0 |3080 |1891 |2975 |2071 | 57 |   0 |  17 | 0.000000e+00 | 1.262210e+01 |    Inf | unknown
 11.6s|     1 |     0 | 88966 |     - |    52M |   0 |3080 |1891 |3021 |2117 | 58 |   0 |  17 | 0.000000e+00 | 1.262210e+01 |    Inf | unknown
 11.6s|     1 |     0 | 88974 |     - |    52M |   0 |3080 |1891 |3028 |2124 | 59 |   0 |  17 | 0.000000e+00 | 1.262210e+01 |    Inf | unknown
 11.6s|     1 |     0 | 88987 |     - |    52M |   0 |3080 |1891 |3028 |2124 | 59 |   0 |  18 | 0.000000e+00 | 1.262210e+01 |    Inf | unknown
 11.7s|     1 |     0 | 89105 |     - |    52M |   0 |3080 |1891 |3073 |2169 | 60 |   0 |  18 | 0.000000e+00 | 1.262210e+01 |    Inf | unknown
 11.7s|     1 |     0 | 89155 |     - |    52M |   0 |3080 |1891 |3024 |2187 | 61 |   0 |  18 | 0.000000e+00 | 1.262210e+01 |    Inf | unknown
 11.7s|     1 |     2 | 89155 |     - |    52M |   0 |3080 |1891 |3024 |2187 | 61 |   0 |  18 | 0.000000e+00 | 1.262210e+01 |    Inf | unknown
d13.4s|    30 |    31 | 97577 |3165.1 |nlpdivin|   9 |3080 |1891 |3302 |   0 |  2 |   0 |  18 | 0.000000e+00 | 1.055535e+01 |    Inf | unknown
 17.0s|   100 |   101 |132290 |1277.8 |    68M |  11 |3080 |1891 |3423 |  24k|  2 |   0 |  18 | 0.000000e+00 | 1.055535e+01 |    Inf | unknown
L18.5s|   130 |   131 |142403 |1059.0 |    gins|  15 |3080 |1891 |3575 |  30k|  4 |   0 |  18 | 0.000000e+00 | 1.009103e+01 |    Inf | unknown
 22.2s|   200 |   201 |161439 | 782.2 |    84M |  15 |3080 |1891 |3202 |  43k|  2 |   0 |  18 | 0.000000e+00 | 1.009103e+01 |    Inf | unknown
L24.0s|   230 |   231 |175931 | 743.0 |    gins|  15 |3080 |1891 |3706 |  49k|  3 |   0 |  18 | 0.000000e+00 | 9.347789e+00 |    Inf | unknown
 27.6s|   300 |   299 |197728 | 641.9 |   103M |  17 |3080 |1891 |3591 |  63k| 14 |   0 |  18 | 0.000000e+00 | 9.347789e+00 |    Inf | unknown
 time | node  | left  |LP iter|LP it/n|mem/heur|mdpt |vars |cons |rows |cuts |sepa|confs|strbr|  dualbound   | primalbound  |  gap   | compl. 
 32.4s|   400 |   397 |229049 | 559.6 |   115M |  17 |3080 |1891 |3546 |  80k|  9 |   0 |  18 | 0.000000e+00 | 9.347789e+00 |    Inf | unknown
 38.0s|   500 |   497 |256022 | 501.5 |   125M |  25 |3080 |1891 |3484 |  96k|  2 |   0 |  18 | 0.000000e+00 | 9.347789e+00 |    Inf | unknown
 44.3s|   600 |   595 |288830 | 472.5 |   136M |  26 |3080 |1891 |3903 | 113k|  2 |   0 |  35 | 0.000000e+00 | 9.347789e+00 |    Inf | unknown
 49.7s|   700 |   695 |326574 | 458.9 |   151M |  26 |3080 |1891 |4014 | 131k| 10 |   0 |  43 | 0.000000e+00 | 9.347789e+00 |    Inf | unknown
 55.0s|   800 |   793 |356073 | 438.4 |   158M |  26 |3080 |1891 |3753 | 143k|  2 |   0 |  44 | 0.000000e+00 | 9.347789e+00 |    Inf | unknown
 60.1s|   900 |   893 |385027 | 421.8 |   170M |  40 |3080 |1891 |4001 | 157k|  2 |   0 |  72 | 0.000000e+00 | 9.347789e+00 |    Inf | unknown
 65.6s|  1000 |   987 |418444 | 413.1 |   177M |  40 |3080 |1891 |3505 | 175k|  2 |   0 |  80 | 0.000000e+00 | 9.347789e+00 |    Inf | unknown
 71.4s|  1100 |  1083 |451348 | 405.4 |   185M |  40 |3080 |1891 |3800 | 193k| 11 |   0 |  80 | 0.000000e+00 | 9.347789e+00 |    Inf | unknown
 77.0s|  1200 |  1181 |480019 | 395.5 |   193M |  40 |3080 |1891 |3933 | 208k| 10 |   0 |  83 | 0.000000e+00 | 9.347789e+00 |    Inf | unknown
 83.2s|  1300 |  1281 |529753 | 403.4 |   203M |  40 |3080 |1891 |4086 | 225k|  2 |   0 |  96 | 0.000000e+00 | 9.347789e+00 |    Inf | unknown
 88.3s|  1400 |  1379 |597799 | 423.2 |   208M |  40 |3080 |1891 |4442 | 235k|  3 |   0 |  96 | 0.000000e+00 | 9.347789e+00 |    Inf | unknown
 94.5s|  1500 |  1479 |655890 | 433.7 |   224M |  54 |3080 |1891 |3916 | 247k|  9 |   0 |  98 | 0.000000e+00 | 9.347789e+00 |    Inf | unknown
  101s|  1600 |  1573 |687139 | 426.1 |   231M |  57 |3080 |1891 |3959 | 262k| 10 |   0 | 105 | 0.000000e+00 | 9.347789e+00 |    Inf | unknown
  106s|  1700 |  1659 |728084 | 425.1 |   235M |  57 |3080 |1891 |3641 | 275k|  0 |   0 | 105 | 0.000000e+00 | 9.347789e+00 |    Inf | unknown
  108s|  1800 |  1749 |804705 | 444.1 |   237M |  57 |3080 |1891 |3676 | 276k|  0 |   0 | 105 | 0.000000e+00 | 9.347789e+00 |    Inf | unknown
 time | node  | left  |LP iter|LP it/n|mem/heur|mdpt |vars |cons |rows |cuts |sepa|confs|strbr|  dualbound   | primalbound  |  gap   | compl. 
  113s|  1900 |  1823 |868842 | 454.5 |   242M |  57 |3080 |1891 |3804 | 281k|  3 |   0 | 107 | 0.000000e+00 | 9.347789e+00 |    Inf | unknown
  118s|  2000 |  1921 |896075 | 445.4 |   249M |  57 |3080 |1891 |4856 | 300k|  9 |   0 | 107 | 0.000000e+00 | 9.347789e+00 |    Inf | unknown
  123s|  2100 |  2013 |943506 | 446.7 |   258M |  66 |3080 |1891 |3424 | 314k|  2 |   0 | 115 | 0.000000e+00 | 9.347789e+00 |    Inf | unknown
  128s|  2200 |  2109 |974756 | 440.6 |   264M |  66 |3080 |1891 |4043 | 332k|  2 |   0 | 115 | 0.000000e+00 | 9.347789e+00 |    Inf | unknown
  133s|  2300 |  2203 |  1008k| 436.3 |   275M |  66 |3080 |1891 |3578 | 350k|  2 |   0 | 119 | 0.000000e+00 | 9.347789e+00 |    Inf | unknown
  138s|  2400 |  2303 |  1047k| 434.4 |   285M |  69 |3080 |1891 |3857 | 366k|  9 |   0 | 122 | 0.000000e+00 | 9.347789e+00 |    Inf | unknown
  143s|  2500 |  2395 |  1076k| 428.5 |   293M |  69 |3080 |1891 |3917 | 384k|  9 |   0 | 122 | 0.000000e+00 | 9.347789e+00 |    Inf | unknown
  148s|  2600 |  2485 |  1103k| 422.5 |   300M |  69 |3080 |1891 |3599 | 401k|  2 |   0 | 129 | 0.000000e+00 | 9.347789e+00 |    Inf | unknown
  152s|  2700 |  2567 |  1154k| 425.4 |   303M |  69 |3080 |1891 |3681 | 412k|  0 |   0 | 131 | 0.000000e+00 | 9.347789e+00 |    Inf | unknown
  156s|  2800 |  2645 |  1228k| 436.9 |   306M |  69 |3080 |1891 |3906 | 417k|  0 |   0 | 131 | 0.000000e+00 | 9.347789e+00 |    Inf | unknown
  161s|  2900 |  2725 |  1273k| 437.2 |   313M |  69 |3080 |1891 |3786 | 430k|  2 |   0 | 178 | 0.000000e+00 | 9.347789e+00 |    Inf | unknown
  166s|  3000 |  2821 |  1301k| 432.2 |   319M |  69 |3080 |1891 |3657 | 447k|  2 |   0 | 178 | 0.000000e+00 | 9.347789e+00 |    Inf | unknown
  171s|  3100 |  2917 |  1330k| 427.5 |   325M |  69 |3080 |1891 |3674 | 463k|  3 |   0 | 190 | 0.000000e+00 | 9.347789e+00 |    Inf | unknown
  176s|  3200 |  3003 |  1353k| 421.3 |   333M |  69 |3080 |1891 |3802 | 479k|  9 |   0 | 200 | 0.000000e+00 | 9.347789e+00 |    Inf | unknown
  182s|  3300 |  3103 |  1386k| 418.6 |   339M |  69 |3080 |1891 |3938 | 496k|  7 |   0 | 227 | 0.000000e+00 | 9.347789e+00 |    Inf | unknown
 time | node  | left  |LP iter|LP it/n|mem/heur|mdpt |vars |cons |rows |cuts |sepa|confs|strbr|  dualbound   | primalbound  |  gap   | compl. 
  187s|  3400 |  3179 |  1416k| 415.0 |   344M |  69 |3080 |1891 |4098 | 512k|  9 |   0 | 230 | 0.000000e+00 | 9.347789e+00 |    Inf | unknown
  192s|  3500 |  3265 |  1444k| 411.2 |   348M |  69 |3080 |1891 |4140 | 525k|  4 |   0 | 244 | 0.000000e+00 | 9.347789e+00 |    Inf | unknown
  197s|  3600 |  3359 |  1469k| 406.8 |   353M |  69 |3080 |1891 |3449 | 541k|  2 |   0 | 247 | 0.000000e+00 | 9.347789e+00 |    Inf | unknown
  202s|  3700 |  3445 |  1497k| 403.2 |   360M |  69 |3080 |1891 |3849 | 557k|  8 |   0 | 256 | 0.000000e+00 | 9.347789e+00 |    Inf | unknown
  207s|  3800 |  3537 |  1526k| 400.3 |   367M |  69 |3080 |1891 |4226 | 574k|  8 |   0 | 275 | 0.000000e+00 | 9.347789e+00 |    Inf | unknown
  213s|  3900 |  3629 |  1556k| 397.8 |   375M |  69 |3080 |1891 |3892 | 590k|  4 |   0 | 299 | 0.000000e+00 | 9.347789e+00 |    Inf | unknown
  219s|  4000 |  3721 |  1582k| 394.3 |   379M |  69 |3080 |1891 |4128 | 604k|  5 |   0 | 329 | 0.000000e+00 | 9.347789e+00 |    Inf | unknown
  224s|  4100 |  3811 |  1608k| 390.9 |   383M |  69 |3080 |1891 |4186 | 619k| 11 |   0 | 343 | 0.000000e+00 | 9.347789e+00 |    Inf | unknown
  230s|  4200 |  3907 |  1634k| 387.9 |   387M |  69 |3080 |1891 |3889 | 633k|  6 |   0 | 357 | 0.000000e+00 | 9.347789e+00 |    Inf | unknown
  234s|  4300 |  4003 |  1654k| 383.5 |   392M |  69 |3080 |1891 |3611 | 647k|  2 |   0 | 374 | 0.000000e+00 | 9.347789e+00 |    Inf | unknown
  241s|  4400 |  4095 |  1697k| 384.5 |   398M |  69 |3080 |1891 |4580 | 663k|  3 |   0 | 454 | 0.000000e+00 | 9.347789e+00 |    Inf | unknown
  246s|  4500 |  4193 |  1726k| 382.4 |   409M |  69 |3080 |1891 |3791 | 683k| 11 |   1 | 461 | 0.000000e+00 | 9.347789e+00 |    Inf | unknown
  251s|  4600 |  4283 |  1756k| 380.8 |   415M |  69 |3080 |1891 |3943 | 703k|  9 |   1 | 461 | 0.000000e+00 | 9.347789e+00 |    Inf | unknown
  256s|  4700 |  4381 |  1788k| 379.4 |   421M |  69 |3080 |1891 |4165 | 723k|  2 |   1 | 462 | 0.000000e+00 | 9.347789e+00 |    Inf | unknown
  261s|  4800 |  4477 |  1817k| 377.4 |   427M |  69 |3080 |1891 |4217 | 742k|  7 |   1 | 474 | 0.000000e+00 | 9.347789e+00 |    Inf | unknown
 time | node  | left  |LP iter|LP it/n|mem/heur|mdpt |vars |cons |rows |cuts |sepa|confs|strbr|  dualbound   | primalbound  |  gap   | compl. 
  266s|  4900 |  4571 |  1845k| 375.6 |   432M |  69 |3080 |1891 |4053 | 760k|  9 |   1 | 476 | 0.000000e+00 | 9.347789e+00 |    Inf | unknown
  271s|  5000 |  4671 |  1878k| 374.6 |   437M |  69 |3080 |1891 |4360 | 781k| 13 |   1 | 476 | 0.000000e+00 | 9.347789e+00 |    Inf | unknown
  276s|  5100 |  4763 |  1909k| 373.3 |   442M |  69 |3080 |1891 |3619 | 799k|  2 |   1 | 478 | 0.000000e+00 | 9.347789e+00 |    Inf | unknown
  281s|  5200 |  4861 |  1939k| 371.9 |   446M |  69 |3080 |1891 |3545 | 818k|  2 |   1 | 489 | 0.000000e+00 | 9.347789e+00 |    Inf | unknown
  287s|  5300 |  4961 |  1966k| 370.0 |   453M |  69 |3080 |1891 |3859 | 838k|  4 |   1 | 495 | 0.000000e+00 | 9.347789e+00 |    Inf | unknown
  292s|  5400 |  5057 |  1993k| 368.2 |   461M |  69 |3080 |1891 |3917 | 857k|  2 |   1 | 498 | 0.000000e+00 | 9.347789e+00 |    Inf | unknown
  297s|  5500 |  5143 |  2024k| 367.1 |   467M |  69 |3080 |1891 |3658 | 874k|  2 |   1 | 507 | 0.000000e+00 | 9.347789e+00 |    Inf | unknown

SCIP Status        : solving was interrupted [time limit reached]
Solving Time (sec) : 300.00
Solving Nodes      : 5559
Primal Bound       : +9.34778881355699e+00 (7 solutions)
Dual Bound         : +0.00000000000000e+00
Gap                : infinite


--- Reading solution for model GAMS_MODEL
***
*** Solver did not provide marginals for model GAMS_MODEL
***
--- Executing after solve: elapsed 0:05:00.336
--- model.gms(6253) 4 Mb
--- model.gms(9100) 6 Mb
--- Putfile results /local/scratch/a/sgusev/repos/k_means/data/gams_scip_gdp.hull/no_mode/2026-02-16_18-15-46/original/results.dat
--- Putfile statresults /local/scratch/a/sgusev/repos/k_means/data/gams_scip_gdp.hull/no_mode/2026-02-16_18-15-46/original/resultsstat.dat
*** Status: Normal completion
--- Job model.gms Stop 02/16/26 18:20:47 elapsed 0:05:00.340
Original problem solved. Time taken: 300.9875223636627 seconds
Original objective value: 9.347788813556988
